33D32945 STP File, STP Format Version 1.0

SECTION Comment
Name "lin01-5s"
Creator "Bernd Zey"
Problem "Stochastic Steiner Tree Problem"
# Stochastic Steiner tree problem instance, base file: lin01.stp
# weight-scaling off
# parameters:
# distribution=equal
# selectRootRandomly=0
# probabilityTerminal=33
# probabilityNonTerminal=5
# 2nd stage edge-costs in [1.1000c_e, 1.3000c_e]
END

SECTION Graph
Nodes 53
Edges 80
Scenarios 5
Root 1
E 1 32 46
E 1 25 26
E 2 51 10
E 2 32 74
E 2 11 70
E 3 52 110
E 3 40 85
E 4 45 66
E 4 51 24
E 4 12 162
E 5 44 12
E 5 23 64
E 5 49 50
E 6 15 88
E 6 30 144
E 6 12 92
E 6 26 160
E 7 9 30
E 7 29 6
E 7 52 160
E 8 28 64
E 8 44 42
E 8 29 62
E 9 12 44
E 10 41 88
E 10 19 26
E 10 16 2
E 11 53 2
E 11 14 42
E 12 34 160
E 13 15 160
E 13 26 88
E 14 43 2
E 14 28 18
E 15 33 144
E 16 18 88
E 16 46 26
E 16 48 146
E 17 29 42
E 17 44 62
E 17 24 62
E 18 41 2
E 18 27 146
E 19 38 76
E 19 46 2
E 20 42 102
E 20 37 190
E 21 48 26
E 21 46 146
E 21 51 66
E 21 45 24
E 22 28 2
E 22 43 18
E 22 23 52
E 23 31 18
E 24 49 62
E 24 40 75
E 25 50 72
E 25 47 28
E 26 34 92
E 27 48 88
E 27 39 24
E 30 33 88
E 30 36 18
E 31 43 52
E 31 37 50
E 32 35 72
E 33 39 18
E 34 52 74
E 35 46 76
E 35 38 2
E 35 50 72
E 36 39 88
E 36 48 24
E 36 45 26
E 37 49 82
E 38 42 72
E 42 50 2
E 43 53 42
E 47 53 46
END

SECTION StochasticProbabilities
SP 0.26670 0.26670 0.17780 0.17770 0.11110
END

SECTION StochasticWeights
SE 53 57 59 56 59 
SE 31 30 32 29 29 
SE 12 11 12 12 12 
SE 96 82 88 90 91 
SE 90 81 80 89 82 
SE 137 133 125 125 126 
SE 101 107 110 98 94 
SE 79 79 76 84 78 
SE 29 27 28 28 29 
SE 182 205 182 179 183 
SE 15 14 15 14 14 
SE 71 74 81 78 76 
SE 59 65 56 64 57 
SE 103 99 105 111 106 
SE 185 163 185 184 177 
SE 109 118 114 114 109 
SE 202 189 184 199 203 
SE 34 37 36 33 38 
SE 7 7 7 7 7 
SE 183 205 193 192 191 
SE 76 73 80 83 75 
SE 47 48 49 47 47 
SE 79 71 71 76 73 
SE 49 52 55 50 55 
SE 112 114 108 98 113 
SE 29 29 29 32 29 
SE 3 3 3 3 3 
SE 3 3 3 3 3 
SE 52 53 54 47 53 
SE 186 207 180 200 192 
SE 189 178 200 176 201 
SE 98 106 105 107 107 
SE 3 3 3 3 3 
SE 20 20 20 20 23 
SE 170 185 178 159 178 
SE 97 97 98 108 97 
SE 33 33 32 32 32 
SE 180 163 177 183 170 
SE 50 48 48 51 49 
SE 72 77 80 80 71 
SE 78 76 70 69 73 
SE 3 3 3 3 3 
SE 183 186 179 178 172 
SE 87 85 96 98 96 
SE 3 3 3 3 3 
SE 121 118 125 126 113 
SE 214 227 213 228 231 
SE 32 33 29 33 33 
SE 161 174 172 166 165 
SE 78 82 73 78 78 
SE 29 31 28 27 29 
SE 3 3 3 3 3 
SE 20 21 20 23 20 
SE 60 62 61 62 64 
SE 20 22 20 23 23 
SE 71 77 71 73 73 
SE 88 85 83 93 90 
SE 91 90 85 81 93 
SE 34 35 33 31 36 
SE 116 115 112 102 103 
SE 111 109 107 99 97 
SE 28 27 30 30 27 
SE 110 101 97 104 109 
SE 21 22 21 21 20 
SE 64 64 66 60 58 
SE 59 63 57 64 64 
SE 86 92 82 85 85 
SE 20 20 22 22 20 
SE 90 82 83 82 94 
SE 96 91 84 91 98 
SE 3 3 3 3 3 
SE 83 82 89 82 80 
SE 104 109 97 106 97 
SE 30 29 31 30 31 
SE 29 29 32 29 30 
SE 105 104 92 91 92 
SE 93 80 86 83 84 
SE 3 3 3 3 3 
SE 53 54 49 50 54 
SE 53 57 56 51 51 
END

SECTION StochasticTerminals
ST 1 1 1 1 1 1 
ST 2 0 0 0 0 0 
ST 3 0 0 0 1 0 
ST 4 0 0 0 0 0 
ST 5 0 0 0 0 0 
ST 6 0 0 0 0 0 
ST 7 0 0 0 0 0 
ST 8 0 0 1 1 1 
ST 9 0 1 0 0 1 
ST 10 0 0 0 0 0 
ST 11 0 0 0 0 0 
ST 12 0 0 0 0 0 
ST 13 0 0 0 0 0 
ST 14 0 0 0 0 0 
ST 15 0 0 0 0 0 
ST 16 0 0 0 0 0 
ST 17 0 0 0 0 0 
ST 18 0 0 0 0 0 
ST 19 0 0 0 0 0 
ST 20 0 0 0 0 0 
ST 21 0 0 0 0 0 
ST 22 0 0 0 0 0 
ST 23 0 0 0 0 0 
ST 24 0 0 0 0 0 
ST 25 0 0 0 0 0 
ST 26 0 0 0 0 0 
ST 27 0 1 0 0 0 
ST 28 0 0 0 1 0 
ST 29 0 0 0 0 0 
ST 30 0 0 0 0 0 
ST 31 0 0 0 0 0 
ST 32 0 0 0 0 0 
ST 33 0 0 0 0 0 
ST 34 0 0 0 0 0 
ST 35 1 0 0 0 0 
ST 36 0 0 0 0 0 
ST 37 0 0 0 0 0 
ST 38 0 0 0 0 0 
ST 39 0 0 0 0 1 
ST 40 1 0 0 1 0 
ST 41 0 0 0 0 0 
ST 42 1 0 0 0 0 
ST 43 1 0 0 0 0 
ST 44 0 1 0 0 0 
ST 45 0 0 0 1 0 
ST 46 0 0 0 0 0 
ST 47 0 1 0 0 0 
ST 48 0 0 0 1 0 
ST 49 0 0 0 0 0 
ST 50 0 0 0 0 0 
ST 51 0 0 0 0 0 
ST 52 0 0 0 0 0 
ST 53 0 0 0 0 0 
END


SECTION Coordinates
DD 1 420 128
DD 2 346 174
DD 3 0 0
DD 4 322 184
DD 5 222 50
DD 6 160 276
DD 7 160 110
DD 8 222 104
DD 9 160 140
DD 10 494 276
DD 11 346 104
DD 12 160 184
DD 13 0 364
DD 14 304 104
DD 15 160 364
DD 16 492 276
DD 17 160 62
DD 18 492 364
DD 19 494 250
DD 20 494 0
DD 21 346 250
DD 22 286 102
DD 23 286 50
DD 24 160 0
DD 25 420 102
DD 26 0 276
DD 27 346 364
DD 28 286 104
DD 29 160 104
DD 30 304 276
DD 31 304 50
DD 32 420 174
DD 33 304 364
DD 34 0 184
DD 35 492 174
DD 36 322 276
DD 37 304 0
DD 38 494 174
DD 39 322 364
DD 40 85 0
DD 41 494 364
DD 42 494 102
DD 43 304 102
DD 44 222 62
DD 45 322 250
DD 46 492 250
DD 47 392 102
DD 48 346 276
DD 49 222 0
DD 50 492 102
DD 51 346 184
DD 52 0 110
DD 53 346 102
END

EOF
